WARNING: for repeatability, setting FPU to use double precision
============================[ Problem Statistics ]=============================
|                                                                             |
|  Number of variables:        889302                                         |
|  Number of clauses:        14582052                                         |
|  Parse time:                   2.98 s                                       |
|                                                                             |
============================[ Search Statistics ]==============================
| Conflicts |          ORIGINAL         |          LEARNT          | Progress |
|           |    Vars  Clauses Literals |    Limit  Clauses Lit/Cl |          |
===============================================================================
|       100 |  889298 14582052 42006124 |  5346752      100     31 |  0.000 % |
|       250 |  889298 14582052 42006124 |  5881427      250     41 |  0.000 % |
|       475 |  889298 14582052 42006124 |  6469570      475    122 |  0.000 % |
|       812 |  889298 14582052 42006124 |  7116527      812    214 |  0.000 % |
|      1318 |  889298 14582052 42006124 |  7828180     1318    223 |  0.000 % |
|      2077 |  889298 14582052 42006124 |  8610998     2077    262 |  0.000 % |
|      3216 |  889298 14582052 42006124 |  9472098     3216    406 |  0.000 % |
|      4924 |  889298 14582052 42006124 | 10419307     4924    391 |  0.000 % |
|      7486 |  889298 14582052 42006124 | 11461238     7486    497 |  0.000 % |
|     11330 |  889298 14582052 42006124 | 12607362    11330    511 |  0.000 % |
|     17096 |  889298 14582052 42006124 | 13868098    17096    728 |  0.000 % |
|     25745 |  889298 14582052 42006124 | 15254908    25745    992 |  0.000 % |
===============================================================================
restarts              : 127
conflicts             : 38583          (625 /sec)
decisions             : 6660595        (0.00 % random) (107864 /sec)
propagations          : 551106776      (8924806 /sec)
conflict literals     : 34406594       (25.95 % deleted)
Memory used           : 1025.00 MB
CPU time              : 61.75 s

SATISFIABLE
